assets/logs/13_14x14_clingo/13_14x14_clingo.solution.log

---------------------------------------------------------
|  0|  0| 76|155| 68|147| 84| 90| 64|135| 41| 55| 60|131|
---------------------------------------------------------
| 74|140| 70|145| 82|153| 66|149| 86| 57| 62|133| 43| 53|
---------------------------------------------------------
|  0| 78|157|103|112|  0| 88| 59| 92| 39|137|  2|129| 58|
---------------------------------------------------------
|138| 72|142| 80|143|101|151|108|139| 61| 94|104| 51| 45|
---------------------------------------------------------
|144|159|105|114| 44|110|141| 99| 37|106|  4| 47| 56|127|
---------------------------------------------------------
|  0|136|146|109|  0| 97| 46|  8| 63| 96| 35| 52|102| 49|
---------------------------------------------------------
|161|107|116| 42|  0|111| 12| 95| 48|  6| 65| 98|125| 54|
---------------------------------------------------------
|134| 40|  0|148|154| 93|158|  0| 10| 33| 50| 77| 67|100|
---------------------------------------------------------
|  0|163|152|118| 36| 14|113| 91|  0|  0| 17| 31| 73|123|
---------------------------------------------------------
|  0|132| 38| 16|150|156| 34|160|115| 29| 75| 69| 79|  0|
---------------------------------------------------------
|165| 18|  1| 26|120|162| 89| 27| 32| 15|117| 19|121| 71|
---------------------------------------------------------
|130|173|167|124|  3| 28|  7|168| 87| 25|174| 13|  0| 81|
---------------------------------------------------------
| 20|  0|128|171| 24|122|164| 30|172| 11| 85|119| 21|  0|
---------------------------------------------------------
|175|169| 22|  0|126|  5|170|  9|166|176| 23|  0| 83|  0|
---------------------------------------------------------

| n = 14 | k = 10 | coverage = 185, 94.38775510204081%
 Time 300.002
 Name 13_14x14_clingo

