assets/logs/13_14x14_clingo/13_14x14_clingo.log
clingo version 5.4.0
Reading from ...s/logs/13_14x14_clingo/knights_tour.lp ...
Solving...
Answer: 1
occ(1,8,3) occ(1,3,6) occ(1,8,8) occ(1,3,1) occ(1,13,14) occ(1,6,5) occ(1,9,9) occ(1,9,10) occ(1,12,13) occ(1,7,5) occ(2,11,3) occ(3,3,12) coverage(6)
Optimization: -6
Answer: 2
occ(1,8,3) occ(1,3,6) occ(1,8,8) occ(1,3,1) occ(1,13,14) occ(1,6,5) occ(1,9,9) occ(1,9,10) occ(1,12,13) occ(1,7,5) occ(2,11,3) occ(3,3,12) coverage(8) occ(5,1,13) occ(7,3,14) occ(4,12,1) occ(6,14,2)
Optimization: -8
Answer: 3
occ(1,8,3) occ(1,3,6) occ(1,8,8) occ(1,3,1) occ(1,13,14) occ(1,6,5) occ(1,9,9) occ(1,9,10) occ(1,12,13) occ(1,7,5) occ(2,11,3) occ(3,3,12) coverage(10) occ(5,2,14) occ(7,4,13) occ(9,6,14) occ(8,8,1) occ(6,10,2) occ(4,12,1)
Optimization: -10
Answer: 4
occ(1,8,3) occ(1,3,6) occ(1,8,8) occ(1,3,1) occ(1,13,14) occ(1,6,5) occ(1,9,9) occ(1,9,10) occ(1,12,13) occ(1,7,5) occ(2,11,3) occ(3,3,12) coverage(12) occ(11,1,14) occ(5,2,14) occ(9,2,12) occ(7,4,13) occ(8,10,5) occ(6,12,4) occ(10,12,6) occ(4,13,2)
Optimization: -12
Answer: 5
occ(1,8,3) occ(1,3,6) occ(1,8,8) occ(1,3,1) occ(1,13,14) occ(1,6,5) occ(1,9,9) occ(1,9,10) occ(1,12,13) occ(1,7,5) occ(2,11,3) occ(3,3,12) coverage(14) occ(5,1,11) occ(7,2,9) occ(9,4,8) occ(13,5,5) occ(11,6,7) occ(8,10,5) occ(6,12,4) occ(10,12,6) occ(4,13,2) occ(12,14,5)
Optimization: -14
Answer: 6
occ(1,8,3) occ(1,3,6) occ(1,8,8) occ(1,3,1) occ(1,13,14) occ(1,6,5) occ(1,9,9) occ(1,9,10) occ(1,12,13) occ(1,7,5) occ(2,11,3) occ(3,3,12) coverage(116) occ(47,1,8) occ(91,1,6) occ(97,1,5) occ(111,1,12) occ(115,1,14) occ(153,1,3) occ(161,1,9) occ(181,1,11) occ(45,2,10) occ(89,2,4) occ(95,2,3) occ(99,2,7) occ(117,2,12) occ(145,2,2) occ(179,2,13) occ(183,2,9) occ(49,3,9) occ(85,3,3) occ(93,3,5) occ(109,3,11) occ(113,3,13) occ(151,3,2) occ(155,3,4) occ(159,3,8) occ(163,3,10) occ(185,3,7) occ(7,4,13) occ(43,4,9) occ(51,4,7) occ(87,4,5) occ(101,4,8) occ(105,4,10) occ(110,4,4) occ(114,4,2) occ(119,4,11) occ(143,4,1) occ(147,4,3) occ(157,4,6) occ(177,4,12) occ(5,5,11) occ(11,5,10) occ(41,5,7) occ(53,5,5) occ(62,5,13) occ(83,5,2) occ(107,5,12) occ(108,5,6) occ(123,5,8) occ(133,5,3) occ(139,5,4) occ(149,5,1) occ(165,5,9) occ(175,5,14) occ(9,6,12) occ(88,6,13) occ(103,6,9) occ(106,6,8) occ(112,6,3) occ(121,6,10) occ(135,6,1) occ(141,6,2) occ(167,6,11) occ(13,7,9) occ(39,7,6) occ(55,7,4) occ(56,7,8) occ(60,7,12) occ(64,7,14) occ(81,7,1) occ(90,7,11) occ(125,7,7) occ(131,7,2) occ(137,7,3) occ(173,7,13) occ(20,8,13) occ(24,8,11) occ(31,8,9) occ(37,8,4) occ(54,8,6) occ(57,8,2) occ(58,8,10) occ(86,8,14) occ(104,8,7) occ(127,8,5) occ(169,8,12) occ(10,9,5) occ(15,9,8) occ(18,9,11) occ(29,9,7) occ(35,9,6) occ(59,9,4) occ(66,9,13) occ(73,9,1) occ(79,9,2) occ(92,9,12) occ(129,9,3) occ(171,9,14) occ(4,10,1) occ(12,10,7) occ(16,10,9) occ(22,10,12) occ(26,10,10) occ(33,10,8) occ(52,10,5) occ(61,10,2) occ(71,10,3) occ(77,10,4) occ(80,10,11) occ(84,10,13) occ(102,10,6) occ(8,11,4) occ(17,11,9) occ(27,11,8) occ(34,11,7) occ(44,11,6) occ(68,11,14) occ(69,11,1) occ(72,11,12) occ(75,11,2) occ(78,11,13) occ(94,11,11) occ(6,12,2) occ(14,12,8) occ(25,12,6) occ(28,12,11) occ(32,12,9) occ(36,12,5) occ(50,12,4) occ(63,12,3) occ(74,12,10) occ(82,12,12) occ(100,12,7) occ(19,13,8) occ(23,13,4) occ(38,13,3) occ(42,13,7) occ(46,13,5) occ(67,13,2) occ(70,13,13) occ(76,13,12) occ(96,13,10) occ(21,14,6) occ(30,14,10) occ(40,14,5) occ(48,14,3) occ(65,14,4) occ(98,14,8)
Optimization: -116
Answer: 7
occ(1,8,3) occ(1,3,6) occ(1,8,8) occ(1,3,1) occ(1,13,14) occ(1,6,5) occ(1,9,9) occ(1,9,10) occ(1,12,13) occ(1,7,5) occ(2,11,3) occ(3,3,12) coverage(118) occ(51,1,8) occ(55,1,4) occ(65,1,5) occ(71,1,6) occ(75,1,10) occ(109,1,11) occ(113,1,9) occ(117,1,7) occ(121,1,3) occ(14,2,4) occ(45,2,10) occ(53,2,6) occ(63,2,3) occ(67,2,7) occ(73,2,8) occ(77,2,12) occ(99,2,13) occ(107,2,9) occ(119,2,5) occ(175,2,11) occ(12,3,2) occ(49,3,9) occ(57,3,3) occ(69,3,5) occ(79,3,14) occ(101,3,11) occ(111,3,10) occ(115,3,8) occ(123,3,4) occ(173,3,13) occ(5,4,10) occ(16,4,3) occ(43,4,9) occ(47,4,11) occ(61,4,4) occ(97,4,14) occ(104,4,13) occ(105,4,8) occ(125,4,2) occ(151,4,5) occ(177,4,12) occ(10,5,1) occ(41,5,7) occ(59,5,2) occ(81,5,13) occ(95,5,12) occ(103,5,10) occ(147,5,8) occ(153,5,3) occ(165,5,9) occ(171,5,14) occ(7,6,9) occ(18,6,2) occ(93,6,10) occ(102,6,12) occ(106,6,14) occ(127,6,3) occ(149,6,6) occ(163,6,7) occ(167,6,11) occ(8,7,2) occ(9,7,11) occ(39,7,6) occ(83,7,14) occ(91,7,8) occ(116,7,12) occ(129,7,1) occ(145,7,7) occ(155,7,4) occ(161,7,9) occ(169,7,13) occ(20,8,1) occ(37,8,4) occ(84,8,7) occ(89,8,10) occ(100,8,11) occ(108,8,13) occ(114,8,14) occ(143,8,5) occ(157,8,6) occ(6,9,3) occ(11,9,12) occ(15,9,14) occ(24,9,4) occ(29,9,7) occ(35,9,6) occ(82,9,5) occ(85,9,13) occ(110,9,11) occ(131,9,2) occ(159,9,8) occ(4,10,1) occ(17,10,12) occ(22,10,2) occ(31,10,9) occ(34,10,6) occ(44,10,5) occ(52,10,7) occ(86,10,8) occ(87,10,11) occ(98,10,10) occ(112,10,13) occ(141,10,4) occ(13,11,13) occ(19,11,14) occ(26,11,5) occ(27,11,8) occ(32,11,4) occ(33,11,7) occ(54,11,9) occ(66,11,11) occ(72,11,12) occ(80,11,6) occ(88,11,10) occ(133,11,1) occ(139,11,2) occ(28,12,7) occ(36,12,5) occ(42,12,4) occ(46,12,6) occ(50,12,8) occ(60,12,11) occ(70,12,14) occ(74,12,10) occ(90,12,12) occ(96,12,9) occ(135,12,3) occ(21,13,13) occ(25,13,9) occ(30,13,5) occ(38,13,3) occ(56,13,8) occ(64,13,10) occ(68,13,12) occ(78,13,7) occ(94,13,11) occ(137,13,1) occ(23,14,11) occ(40,14,5) occ(48,14,7) occ(58,14,10) occ(62,14,12) occ(76,14,9) occ(92,14,13)
Optimization: -118
Answer: 8
occ(1,8,3) occ(1,3,6) occ(1,8,8) occ(1,3,1) occ(1,13,14) occ(1,6,5) occ(1,9,9) occ(1,9,10) occ(1,12,13) occ(1,7,5) occ(2,11,3) occ(3,3,12) coverage(156) occ(51,1,8) occ(55,1,4) occ(65,1,1) occ(71,1,6) occ(75,1,10) occ(109,1,11) occ(113,1,9) occ(117,1,7) occ(45,2,10) occ(53,2,6) occ(63,2,3) occ(69,2,4) occ(73,2,8) occ(77,2,12) occ(99,2,13) occ(107,2,9) occ(119,2,5) occ(129,2,2) occ(175,2,11) occ(49,3,9) occ(57,3,3) occ(67,3,2) occ(79,3,14) occ(101,3,11) occ(111,3,10) occ(115,3,8) occ(121,3,7) occ(130,3,5) occ(135,3,4) occ(173,3,13) occ(5,4,10) occ(43,4,9) occ(47,4,11) occ(61,4,4) occ(97,4,14) occ(104,4,13) occ(105,4,8) occ(123,4,5) occ(127,4,1) occ(128,4,7) occ(131,4,3) occ(137,4,2) occ(177,4,12) occ(41,5,7) occ(59,5,2) occ(81,5,13) occ(95,5,12) occ(103,5,10) occ(118,5,11) occ(125,5,3) occ(132,5,6) occ(133,5,5) occ(138,5,1) occ(147,5,8) occ(151,5,4) occ(165,5,9) occ(171,5,14) occ(7,6,9) occ(93,6,10) occ(102,6,12) occ(106,6,14) occ(120,6,13) occ(126,6,8) occ(134,6,4) occ(139,6,1) occ(140,6,3) occ(149,6,6) occ(153,6,2) occ(163,6,7) occ(167,6,11) occ(9,7,11) occ(39,7,6) occ(83,7,14) occ(91,7,8) occ(116,7,12) occ(124,7,10) occ(136,7,2) occ(141,7,3) occ(142,7,1) occ(145,7,7) occ(155,7,4) occ(161,7,9) occ(169,7,13) occ(37,8,4) occ(84,8,7) occ(89,8,10) occ(100,8,11) occ(108,8,13) occ(114,8,14) occ(122,8,12) occ(143,8,5) occ(157,8,6) occ(6,9,3) occ(11,9,12) occ(15,9,14) occ(24,9,4) occ(29,9,7) occ(35,9,6) occ(82,9,5) occ(85,9,13) occ(110,9,11) occ(144,9,2) occ(159,9,8) occ(4,10,1) occ(8,10,5) occ(12,10,3) occ(17,10,12) occ(22,10,2) occ(31,10,9) occ(34,10,6) occ(38,10,4) occ(52,10,7) occ(86,10,8) occ(87,10,11) occ(98,10,10) occ(112,10,13) occ(13,11,13) occ(19,11,14) occ(26,11,5) occ(27,11,8) occ(32,11,4) occ(33,11,7) occ(40,11,2) occ(54,11,9) occ(66,11,11) occ(72,11,12) occ(80,11,6) occ(88,11,10) occ(146,11,1) occ(10,12,4) occ(14,12,2) occ(20,12,1) occ(28,12,7) occ(36,12,5) occ(46,12,6) occ(50,12,8) occ(60,12,11) occ(70,12,14) occ(74,12,10) occ(90,12,12) occ(96,12,9) occ(16,13,4) occ(21,13,13) occ(25,13,9) occ(30,13,5) occ(42,13,3) occ(56,13,8) occ(64,13,10) occ(68,13,12) occ(78,13,7) occ(94,13,11) occ(148,13,2) occ(152,13,6) occ(18,14,2) occ(23,14,11) occ(44,14,5) occ(48,14,7) occ(58,14,10) occ(62,14,12) occ(76,14,9) occ(92,14,13) occ(150,14,4) occ(154,14,8)
Optimization: -156
Answer: 9
occ(1,8,3) occ(1,3,6) occ(1,8,8) occ(1,3,1) occ(1,13,14) occ(1,6,5) occ(1,9,9) occ(1,9,10) occ(1,12,13) occ(1,7,5) occ(2,11,3) occ(3,3,12) coverage(157) occ(11,1,10) occ(15,1,6) occ(30,1,3) occ(34,1,7) occ(117,1,13) occ(121,1,9) occ(126,1,11) occ(136,1,8) occ(139,1,12) occ(156,1,2) occ(5,2,10) occ(9,2,12) occ(13,2,8) occ(17,2,4) occ(26,2,2) occ(32,2,5) occ(36,2,9) occ(119,2,11) occ(123,2,7) occ(124,2,13) occ(137,2,14) occ(148,2,3) occ(28,3,4) occ(38,3,11) occ(115,3,14) occ(127,3,8) occ(128,3,10) occ(134,3,7) occ(138,3,9) occ(141,3,13) occ(154,3,3) occ(7,4,11) occ(19,4,3) occ(24,4,1) occ(104,4,7) occ(107,4,9) occ(122,4,14) occ(125,4,6) occ(129,4,10) occ(130,4,8) occ(135,4,13) occ(145,4,12) occ(146,4,2) occ(150,4,4) occ(22,5,3) occ(40,5,10) occ(81,5,7) occ(98,5,1) occ(102,5,5) occ(106,5,9) occ(109,5,11) occ(113,5,13) occ(131,5,12) occ(132,5,6) occ(140,5,8) occ(143,5,14) occ(144,5,4) occ(152,5,2) occ(20,6,1) occ(21,6,2) occ(42,6,8) occ(83,6,9) occ(100,6,3) occ(105,6,10) occ(120,6,13) occ(133,6,14) occ(142,6,6) occ(147,6,11) occ(37,7,7) occ(44,7,10) occ(47,7,4) occ(78,7,3) occ(79,7,6) occ(85,7,11) occ(95,7,14) occ(96,7,2) occ(101,7,13) occ(108,7,8) occ(111,7,12) occ(149,7,9) occ(18,8,2) occ(23,8,1) occ(39,8,9) occ(45,8,6) occ(80,8,5) occ(87,8,13) occ(94,8,4) occ(97,8,12) occ(103,8,11) occ(110,8,10) occ(118,8,14) occ(151,8,7) occ(35,9,6) occ(43,9,8) occ(46,9,11) occ(49,9,3) occ(76,9,2) occ(77,9,5) occ(90,9,7) occ(93,9,13) occ(99,9,14) occ(112,9,12) occ(16,10,1) occ(25,10,2) occ(41,10,10) occ(71,10,7) occ(74,10,4) occ(75,10,3) occ(82,10,6) occ(88,10,9) occ(89,10,12) occ(92,10,5) occ(116,10,13) occ(153,10,8) occ(33,11,7) occ(48,11,10) occ(51,11,2) occ(58,11,13) occ(69,11,9) occ(72,11,6) occ(73,11,5) occ(84,11,8) occ(91,11,14) occ(114,11,11) occ(8,12,1) occ(14,12,2) occ(27,12,3) occ(31,12,5) occ(50,12,12) occ(53,12,4) occ(56,12,11) occ(59,12,9) occ(65,12,8) occ(66,12,6) occ(86,12,10) occ(155,12,7) occ(4,13,4) occ(10,13,3) occ(54,13,13) occ(55,13,6) occ(60,13,12) occ(61,13,11) occ(64,13,8) occ(67,13,10) occ(70,13,7) occ(6,14,2) occ(12,14,1) occ(29,14,4) occ(52,14,11) occ(57,14,8) occ(62,14,10) occ(63,14,9) occ(68,14,5)
Optimization: -157
Answer: 10
occ(1,8,3) occ(1,3,6) occ(1,8,8) occ(1,3,1) occ(1,13,14) occ(1,6,5) occ(1,9,9) occ(1,9,10) occ(1,12,13) occ(1,7,5) occ(2,11,3) occ(3,3,12) coverage(158) occ(11,1,10) occ(15,1,6) occ(30,1,3) occ(34,1,7) occ(117,1,13) occ(121,1,9) occ(126,1,11) occ(136,1,8) occ(139,1,12) occ(156,1,2) occ(5,2,10) occ(9,2,12) occ(13,2,8) occ(17,2,4) occ(26,2,2) occ(32,2,5) occ(36,2,9) occ(119,2,11) occ(123,2,7) occ(124,2,13) occ(137,2,14) occ(148,2,3) occ(28,3,4) occ(38,3,11) occ(115,3,14) occ(127,3,8) occ(128,3,10) occ(134,3,7) occ(138,3,9) occ(141,3,13) occ(154,3,3) occ(7,4,11) occ(19,4,3) occ(24,4,1) occ(104,4,7) occ(107,4,9) occ(122,4,14) occ(125,4,6) occ(129,4,10) occ(130,4,8) occ(135,4,13) occ(145,4,12) occ(146,4,2) occ(150,4,4) occ(22,5,3) occ(40,5,10) occ(81,5,7) occ(98,5,1) occ(102,5,5) occ(106,5,9) occ(109,5,11) occ(113,5,13) occ(131,5,12) occ(132,5,6) occ(140,5,8) occ(143,5,14) occ(144,5,4) occ(152,5,2) occ(20,6,1) occ(21,6,2) occ(42,6,8) occ(83,6,9) occ(100,6,3) occ(105,6,10) occ(120,6,13) occ(133,6,14) occ(142,6,6) occ(147,6,11) occ(37,7,7) occ(44,7,10) occ(47,7,4) occ(78,7,3) occ(79,7,6) occ(85,7,11) occ(95,7,14) occ(96,7,2) occ(101,7,13) occ(108,7,8) occ(111,7,12) occ(149,7,9) occ(18,8,2) occ(23,8,1) occ(39,8,9) occ(45,8,6) occ(80,8,5) occ(87,8,13) occ(94,8,4) occ(97,8,12) occ(103,8,11) occ(110,8,10) occ(118,8,14) occ(151,8,7) occ(35,9,6) occ(43,9,8) occ(46,9,11) occ(49,9,3) occ(76,9,2) occ(77,9,5) occ(90,9,7) occ(93,9,13) occ(99,9,14) occ(112,9,12) occ(16,10,1) occ(25,10,2) occ(41,10,10) occ(71,10,7) occ(74,10,4) occ(75,10,3) occ(82,10,6) occ(88,10,9) occ(89,10,12) occ(92,10,5) occ(116,10,13) occ(153,10,8) occ(33,11,7) occ(48,11,10) occ(51,11,2) occ(58,11,13) occ(69,11,9) occ(72,11,6) occ(73,11,5) occ(84,11,8) occ(91,11,14) occ(114,11,11) occ(8,12,1) occ(14,12,2) occ(27,12,3) occ(31,12,5) occ(50,12,12) occ(53,12,4) occ(56,12,11) occ(59,12,9) occ(65,12,8) occ(66,12,6) occ(86,12,10) occ(155,12,7) occ(4,13,4) occ(10,13,3) occ(54,13,13) occ(55,13,6) occ(60,13,12) occ(61,13,11) occ(64,13,8) occ(67,13,10) occ(70,13,7) occ(6,14,2) occ(12,14,1) occ(29,14,4) occ(52,14,11) occ(57,14,8) occ(62,14,10) occ(63,14,9) occ(68,14,5) occ(157,14,6)
Optimization: -158
Answer: 11
occ(1,8,3) occ(1,3,6) occ(1,8,8) occ(1,3,1) occ(1,13,14) occ(1,6,5) occ(1,9,9) occ(1,9,10) occ(1,12,13) occ(1,7,5) occ(2,11,3) occ(3,3,12) coverage(159) occ(11,1,10) occ(15,1,6) occ(30,1,3) occ(34,1,7) occ(117,1,13) occ(121,1,9) occ(126,1,11) occ(136,1,8) occ(139,1,12) occ(156,1,2) occ(5,2,10) occ(9,2,12) occ(13,2,8) occ(26,2,2) occ(32,2,5) occ(36,2,9) occ(119,2,11) occ(123,2,7) occ(124,2,13) occ(137,2,14) occ(148,2,3) occ(158,2,4) occ(17,3,5) occ(28,3,4) occ(38,3,11) occ(115,3,14) occ(127,3,8) occ(128,3,10) occ(134,3,7) occ(138,3,9) occ(141,3,13) occ(154,3,3) occ(7,4,11) occ(19,4,3) occ(24,4,1) occ(104,4,7) occ(107,4,9) occ(122,4,14) occ(125,4,6) occ(129,4,10) occ(130,4,8) occ(135,4,13) occ(145,4,12) occ(146,4,2) occ(150,4,4) occ(22,5,3) occ(40,5,10) occ(81,5,7) occ(98,5,1) occ(102,5,5) occ(106,5,9) occ(109,5,11) occ(113,5,13) occ(131,5,12) occ(132,5,6) occ(140,5,8) occ(143,5,14) occ(144,5,4) occ(152,5,2) occ(20,6,1) occ(21,6,2) occ(42,6,8) occ(83,6,9) occ(100,6,3) occ(105,6,10) occ(120,6,13) occ(133,6,14) occ(142,6,6) occ(147,6,11) occ(37,7,7) occ(44,7,10) occ(47,7,4) occ(78,7,3) occ(79,7,6) occ(85,7,11) occ(95,7,14) occ(96,7,2) occ(101,7,13) occ(108,7,8) occ(111,7,12) occ(149,7,9) occ(18,8,2) occ(23,8,1) occ(39,8,9) occ(45,8,6) occ(80,8,5) occ(87,8,13) occ(94,8,4) occ(97,8,12) occ(103,8,11) occ(110,8,10) occ(118,8,14) occ(151,8,7) occ(35,9,6) occ(43,9,8) occ(46,9,11) occ(49,9,3) occ(76,9,2) occ(77,9,5) occ(90,9,7) occ(93,9,13) occ(99,9,14) occ(112,9,12) occ(16,10,1) occ(25,10,2) occ(41,10,10) occ(71,10,7) occ(74,10,4) occ(75,10,3) occ(82,10,6) occ(88,10,9) occ(89,10,12) occ(92,10,5) occ(116,10,13) occ(153,10,8) occ(33,11,7) occ(48,11,10) occ(51,11,2) occ(58,11,13) occ(69,11,9) occ(72,11,6) occ(73,11,5) occ(84,11,8) occ(91,11,14) occ(114,11,11) occ(8,12,1) occ(14,12,2) occ(27,12,3) occ(31,12,5) occ(50,12,12) occ(53,12,4) occ(56,12,11) occ(59,12,9) occ(65,12,8) occ(66,12,6) occ(86,12,10) occ(155,12,7) occ(4,13,4) occ(10,13,3) occ(54,13,13) occ(55,13,6) occ(60,13,12) occ(61,13,11) occ(64,13,8) occ(67,13,10) occ(70,13,7) occ(6,14,2) occ(12,14,1) occ(29,14,4) occ(52,14,11) occ(57,14,8) occ(62,14,10) occ(63,14,9) occ(68,14,5) occ(157,14,6)
Optimization: -159
Answer: 12
occ(1,8,3) occ(1,3,6) occ(1,8,8) occ(1,3,1) occ(1,13,14) occ(1,6,5) occ(1,9,9) occ(1,9,10) occ(1,12,13) occ(1,7,5) occ(2,11,3) occ(3,3,12) coverage(161) occ(66,1,11) occ(80,1,10) occ(84,1,6) occ(117,1,3) occ(121,1,7) occ(129,1,9) occ(135,1,12) occ(139,1,8) occ(143,1,4) occ(64,2,9) occ(68,2,13) occ(74,2,12) occ(82,2,8) occ(86,2,4) occ(112,2,7) occ(115,2,1) occ(119,2,5) occ(131,2,11) occ(137,2,10) occ(141,2,6) occ(145,2,2) occ(152,2,3) occ(72,3,14) occ(78,3,11) occ(88,3,2) occ(109,3,7) occ(113,3,3) occ(114,3,9) occ(123,3,8) occ(127,3,10) occ(133,3,13) occ(150,3,5) occ(7,4,9) occ(62,4,10) occ(70,4,12) occ(76,4,13) occ(79,4,11) occ(110,4,8) occ(111,4,5) occ(116,4,7) occ(134,4,6) occ(142,4,4) occ(147,4,1) occ(148,4,3) occ(154,4,2) occ(5,5,11) occ(9,5,7) occ(60,5,12) occ(77,5,13) occ(90,5,1) occ(107,5,6) occ(120,5,10) occ(125,5,9) occ(132,5,8) occ(138,5,5) occ(144,5,2) occ(151,5,4) occ(20,6,13) occ(58,6,14) occ(81,6,10) occ(108,6,9) occ(118,6,8) occ(122,6,12) occ(128,6,11) occ(136,6,7) occ(140,6,3) occ(146,6,4) occ(149,6,2) occ(153,6,6) occ(156,6,1) occ(11,7,6) occ(18,7,11) occ(75,7,12) occ(83,7,8) occ(92,7,2) occ(93,7,13) occ(105,7,7) occ(124,7,10) occ(130,7,9) occ(158,7,3) occ(16,8,9) occ(17,8,6) occ(22,8,14) occ(23,8,1) occ(37,8,4) occ(56,8,13) occ(95,8,11) occ(106,8,10) occ(126,8,12) occ(155,8,7) occ(13,9,5) occ(19,9,4) occ(25,9,3) occ(39,9,6) occ(52,9,14) occ(73,9,11) occ(85,9,7) occ(91,9,12) occ(94,9,1) occ(97,9,13) occ(103,9,8) occ(160,9,2) occ(14,10,8) occ(15,10,7) occ(21,10,2) occ(24,10,13) occ(27,10,1) occ(35,10,5) occ(45,10,4) occ(54,10,12) occ(89,10,10) occ(96,10,3) occ(99,10,11) occ(104,10,9) occ(157,10,6) occ(26,11,11) occ(31,11,4) occ(36,11,10) occ(41,11,5) occ(47,11,2) occ(50,11,13) occ(71,11,12) occ(87,11,8) occ(101,11,9) occ(102,11,7) occ(162,11,1) occ(4,12,1) occ(12,12,7) occ(28,12,9) occ(29,12,2) occ(33,12,6) occ(42,12,12) occ(43,12,3) occ(46,12,14) occ(57,12,8) occ(63,12,11) occ(69,12,10) occ(98,12,4) occ(159,12,5) occ(8,13,4) occ(30,13,7) occ(34,13,11) occ(38,13,9) occ(48,13,12) occ(49,13,1) occ(53,13,5) occ(59,13,10) occ(67,13,8) occ(100,13,6) occ(164,13,2) occ(6,14,2) occ(10,14,6) occ(32,14,9) occ(40,14,11) occ(44,14,13) occ(51,14,3) occ(55,14,7) occ(61,14,12) occ(65,14,10) occ(166,14,4)
Optimization: -161
Answer: 13
occ(1,8,3) occ(1,3,6) occ(1,8,8) occ(1,3,1) occ(1,13,14) occ(1,6,5) occ(1,9,9) occ(1,9,10) occ(1,12,13) occ(1,7,5) occ(2,11,3) occ(3,3,12) coverage(163) occ(66,1,11) occ(80,1,10) occ(84,1,6) occ(117,1,3) occ(121,1,7) occ(129,1,9) occ(135,1,12) occ(139,1,8) occ(143,1,4) occ(64,2,9) occ(68,2,13) occ(74,2,12) occ(82,2,8) occ(86,2,4) occ(112,2,7) occ(115,2,1) occ(119,2,5) occ(131,2,11) occ(137,2,10) occ(141,2,6) occ(145,2,2) occ(152,2,3) occ(72,3,14) occ(78,3,11) occ(88,3,2) occ(109,3,7) occ(113,3,3) occ(114,3,9) occ(123,3,8) occ(127,3,10) occ(133,3,13) occ(150,3,5) occ(7,4,9) occ(62,4,10) occ(70,4,12) occ(76,4,13) occ(79,4,11) occ(110,4,8) occ(111,4,5) occ(116,4,7) occ(134,4,6) occ(142,4,4) occ(147,4,1) occ(148,4,3) occ(154,4,2) occ(5,5,11) occ(9,5,7) occ(60,5,12) occ(77,5,13) occ(90,5,1) occ(107,5,6) occ(120,5,10) occ(125,5,9) occ(132,5,8) occ(138,5,5) occ(144,5,2) occ(151,5,4) occ(20,6,13) occ(58,6,14) occ(81,6,10) occ(108,6,9) occ(118,6,8) occ(122,6,12) occ(128,6,11) occ(136,6,7) occ(140,6,3) occ(146,6,4) occ(149,6,2) occ(153,6,6) occ(156,6,1) occ(11,7,6) occ(18,7,11) occ(75,7,12) occ(83,7,8) occ(92,7,2) occ(93,7,13) occ(105,7,7) occ(124,7,10) occ(130,7,9) occ(158,7,3) occ(16,8,9) occ(17,8,6) occ(22,8,14) occ(23,8,1) occ(37,8,4) occ(56,8,13) occ(95,8,11) occ(106,8,10) occ(126,8,12) occ(155,8,7) occ(13,9,5) occ(19,9,4) occ(25,9,3) occ(39,9,6) occ(52,9,14) occ(73,9,11) occ(85,9,7) occ(91,9,12) occ(94,9,1) occ(97,9,13) occ(103,9,8) occ(160,9,2) occ(14,10,8) occ(15,10,7) occ(21,10,2) occ(24,10,13) occ(27,10,1) occ(35,10,5) occ(45,10,4) occ(54,10,12) occ(89,10,10) occ(96,10,3) occ(99,10,11) occ(104,10,9) occ(157,10,6) occ(26,11,11) occ(31,11,4) occ(36,11,10) occ(41,11,5) occ(47,11,2) occ(50,11,13) occ(71,11,12) occ(87,11,8) occ(101,11,9) occ(102,11,7) occ(162,11,1) occ(4,12,1) occ(12,12,7) occ(28,12,9) occ(29,12,2) occ(33,12,6) occ(42,12,12) occ(43,12,3) occ(46,12,14) occ(57,12,8) occ(63,12,11) occ(69,12,10) occ(98,12,4) occ(159,12,5) occ(8,13,4) occ(30,13,7) occ(34,13,11) occ(38,13,9) occ(48,13,12) occ(49,13,1) occ(53,13,5) occ(59,13,10) occ(67,13,8) occ(100,13,6) occ(161,13,3) occ(164,13,2) occ(6,14,2) occ(10,14,6) occ(32,14,9) occ(40,14,11) occ(44,14,13) occ(51,14,3) occ(55,14,7) occ(61,14,12) occ(65,14,10) occ(166,14,4)
Optimization: -163
Answer: 14
occ(1,8,3) occ(1,3,6) occ(1,8,8) occ(1,3,1) occ(1,13,14) occ(1,6,5) occ(1,9,9) occ(1,9,10) occ(1,12,13) occ(1,7,5) occ(2,11,3) occ(3,3,12) coverage(168) occ(66,1,11) occ(80,1,10) occ(84,1,6) occ(117,1,3) occ(121,1,7) occ(129,1,9) occ(135,1,12) occ(139,1,8) occ(143,1,4) occ(146,1,5) occ(64,2,9) occ(68,2,13) occ(74,2,12) occ(82,2,8) occ(86,2,4) occ(112,2,7) occ(115,2,1) occ(119,2,5) occ(131,2,11) occ(137,2,10) occ(141,2,6) occ(145,2,2) occ(148,2,3) occ(72,3,14) occ(78,3,11) occ(88,3,2) occ(109,3,7) occ(113,3,3) occ(114,3,9) occ(123,3,8) occ(127,3,10) occ(133,3,13) occ(144,3,4) occ(150,3,5) occ(7,4,9) occ(62,4,10) occ(70,4,12) occ(76,4,13) occ(79,4,11) occ(110,4,8) occ(111,4,5) occ(116,4,7) occ(134,4,6) occ(147,4,1) occ(152,4,3) occ(158,4,4) occ(162,4,2) occ(5,5,11) occ(9,5,7) occ(60,5,12) occ(77,5,13) occ(90,5,1) occ(107,5,6) occ(120,5,10) occ(125,5,9) occ(132,5,8) occ(138,5,5) occ(142,5,3) occ(151,5,4) occ(156,5,2) occ(20,6,13) occ(58,6,14) occ(81,6,10) occ(108,6,9) occ(118,6,8) occ(122,6,12) occ(128,6,11) occ(136,6,7) occ(149,6,2) occ(153,6,6) occ(154,6,4) occ(160,6,3) occ(164,6,1) occ(11,7,6) occ(18,7,11) occ(75,7,12) occ(83,7,8) occ(92,7,2) occ(93,7,13) occ(105,7,7) occ(124,7,10) occ(130,7,9) occ(140,7,4) occ(166,7,3) occ(16,8,9) occ(17,8,6) occ(22,8,14) occ(23,8,1) occ(37,8,4) occ(56,8,13) occ(95,8,11) occ(106,8,10) occ(126,8,12) occ(155,8,7) occ(13,9,5) occ(19,9,4) occ(25,9,3) occ(39,9,6) occ(52,9,14) occ(73,9,11) occ(85,9,7) occ(91,9,12) occ(94,9,1) occ(97,9,13) occ(103,9,8) occ(167,9,2) occ(14,10,8) occ(15,10,7) occ(21,10,2) occ(24,10,13) occ(27,10,1) occ(35,10,5) occ(45,10,4) occ(54,10,12) occ(89,10,10) occ(96,10,3) occ(99,10,11) occ(104,10,9) occ(157,10,6) occ(26,11,11) occ(31,11,4) occ(36,11,10) occ(41,11,5) occ(47,11,2) occ(50,11,13) occ(71,11,12) occ(87,11,8) occ(101,11,9) occ(102,11,7) occ(165,11,1) occ(4,12,1) occ(12,12,7) occ(28,12,9) occ(29,12,2) occ(33,12,6) occ(42,12,12) occ(43,12,3) occ(46,12,14) occ(57,12,8) occ(63,12,11) occ(69,12,10) occ(98,12,4) occ(159,12,5) occ(8,13,4) occ(30,13,7) occ(34,13,11) occ(38,13,9) occ(48,13,12) occ(49,13,1) occ(53,13,5) occ(59,13,10) occ(67,13,8) occ(100,13,6) occ(163,13,2) occ(6,14,2) occ(10,14,6) occ(32,14,9) occ(40,14,11) occ(44,14,13) occ(51,14,3) occ(55,14,7) occ(61,14,12) occ(65,14,10) occ(161,14,4)
Optimization: -168
Answer: 15
occ(1,8,3) occ(1,3,6) occ(1,8,8) occ(1,3,1) occ(1,13,14) occ(1,6,5) occ(1,9,9) occ(1,9,10) occ(1,12,13) occ(1,7,5) occ(2,11,3) occ(3,3,12) coverage(169) occ(30,1,9) occ(36,1,10) occ(40,1,14) occ(111,1,8) occ(136,1,6) occ(140,1,2) occ(150,1,5) occ(154,1,1) occ(158,1,3) occ(5,2,14) occ(27,2,9) occ(28,2,7) occ(34,2,8) occ(38,2,12) occ(91,2,11) occ(109,2,6) occ(113,2,10) occ(123,2,13) occ(138,2,4) occ(146,2,2) occ(152,2,3) occ(160,2,1) occ(29,3,11) occ(32,3,10) occ(42,3,13) occ(90,3,5) occ(93,3,9) occ(107,3,8) occ(119,3,14) occ(134,3,7) occ(142,3,3) occ(148,3,4) occ(156,3,2) occ(7,4,13) occ(25,4,8) occ(26,4,6) occ(31,4,9) occ(86,4,4) occ(89,4,10) occ(92,4,3) occ(95,4,7) occ(115,4,11) occ(121,4,12) occ(125,4,14) occ(144,4,1) occ(162,4,2) occ(168,4,5) occ(9,5,11) occ(20,5,2) occ(23,5,10) occ(24,5,4) occ(44,5,12) occ(88,5,6) occ(94,5,1) occ(97,5,9) occ(101,5,5) occ(105,5,7) occ(117,5,13) occ(132,5,8) occ(166,5,3) occ(10,6,2) occ(13,6,12) occ(14,6,6) occ(18,6,4) occ(33,6,8) occ(72,6,9) occ(84,6,3) occ(87,6,11) occ(99,6,7) occ(127,6,13) occ(130,6,10) occ(164,6,1) occ(11,7,10) occ(12,7,4) occ(15,7,14) occ(21,7,9) occ(22,7,3) occ(46,7,13) occ(70,7,11) occ(74,7,7) occ(96,7,2) occ(103,7,6) occ(128,7,8) occ(131,7,12) occ(8,8,1) occ(16,8,5) occ(19,8,11) occ(35,8,9) occ(57,8,6) occ(61,8,4) occ(64,8,13) occ(82,8,2) occ(85,8,12) occ(129,8,14) occ(133,8,10) occ(6,9,3) occ(17,9,13) occ(48,9,14) occ(53,9,5) occ(62,9,11) occ(63,9,6) occ(67,9,2) occ(68,9,12) occ(76,9,8) occ(80,9,4) occ(98,9,1) occ(126,9,7) occ(4,10,1) occ(37,10,10) occ(50,10,12) occ(51,10,3) occ(55,10,7) occ(59,10,5) occ(65,10,4) occ(66,10,14) occ(78,10,6) occ(79,10,9) occ(83,10,13) occ(122,10,8) occ(135,10,11) occ(39,11,8) occ(52,11,14) occ(60,11,12) occ(69,11,1) occ(77,11,7) occ(81,11,11) occ(100,11,2) occ(106,11,5) occ(120,11,10) occ(124,11,6) occ(141,11,13) occ(49,12,2) occ(54,12,12) occ(73,12,4) occ(104,12,3) occ(108,12,7) occ(116,12,9) occ(137,12,10) occ(143,12,11) occ(149,12,8) occ(155,12,5) occ(159,12,1) occ(165,12,6) occ(41,13,9) occ(45,13,5) occ(58,13,13) occ(71,13,2) occ(75,13,6) occ(102,13,1) occ(112,13,8) occ(118,13,11) occ(139,13,12) occ(147,13,10) occ(153,13,7) occ(157,13,3) occ(163,13,4) occ(43,14,7) occ(47,14,3) occ(56,14,11) occ(110,14,6) occ(114,14,10) occ(145,14,12) occ(151,14,9) occ(161,14,2) occ(167,14,5)
Optimization: -169
Answer: 16
occ(1,8,3) occ(1,3,6) occ(1,8,8) occ(1,3,1) occ(1,13,14) occ(1,6,5) occ(1,9,9) occ(1,9,10) occ(1,12,13) occ(1,7,5) occ(2,11,3) occ(3,3,12) coverage(170) occ(16,1,4) occ(25,1,1) occ(28,1,6) occ(130,1,5) occ(134,1,9) occ(140,1,12) occ(154,1,11) occ(160,1,10) occ(168,1,8) occ(14,2,2) occ(18,2,6) occ(26,2,8) occ(27,2,3) occ(36,2,5) occ(132,2,7) occ(136,2,11) occ(142,2,14) occ(152,2,13) occ(156,2,9) occ(161,2,12) occ(166,2,10) occ(22,3,7) occ(23,3,2) occ(30,3,5) occ(33,3,3) occ(128,3,4) occ(138,3,13) occ(143,3,8) occ(158,3,11) occ(159,3,10) occ(162,3,9) occ(163,3,14) occ(12,4,1) occ(20,4,5) occ(24,4,9) occ(29,4,2) occ(34,4,4) occ(38,4,6) occ(51,4,3) occ(55,4,7) occ(144,4,13) occ(145,4,10) occ(150,4,14) occ(157,4,8) occ(164,4,11) occ(165,4,12) occ(5,5,13) occ(21,5,1) occ(31,5,4) occ(32,5,6) occ(35,5,2) occ(53,5,5) occ(90,5,9) occ(99,5,8) occ(126,5,3) occ(141,5,7) occ(148,5,12) occ(149,5,11) occ(155,5,10) occ(167,5,14) occ(10,6,2) occ(19,6,3) occ(40,6,7) occ(49,6,4) occ(50,6,6) occ(57,6,8) occ(92,6,11) occ(97,6,10) occ(124,6,1) occ(146,6,14) occ(147,6,9) occ(151,6,13) occ(169,6,12) occ(7,7,12) occ(11,7,8) occ(37,7,1) occ(46,7,3) occ(47,7,2) occ(52,7,4) occ(84,7,14) occ(85,7,13) occ(88,7,10) occ(94,7,9) occ(101,7,7) occ(139,7,6) occ(153,7,11) occ(8,8,1) occ(9,8,10) occ(17,8,4) occ(42,8,6) occ(48,8,5) occ(59,8,9) occ(81,8,14) occ(86,8,12) occ(95,8,11) occ(96,8,7) occ(122,8,2) occ(13,9,7) occ(39,9,2) occ(44,9,4) occ(45,9,1) occ(54,9,3) occ(82,9,13) occ(83,9,12) occ(87,9,14) occ(100,9,6) occ(103,9,8) occ(137,9,5) occ(6,10,2) occ(15,10,5) occ(43,10,3) occ(61,10,10) occ(72,10,9) occ(79,10,13) occ(93,10,12) occ(98,10,8) occ(102,10,4) occ(105,10,6) occ(120,10,1) occ(131,10,11) occ(135,10,7) occ(41,11,1) occ(56,11,2) occ(63,11,12) occ(70,11,7) occ(77,11,11) occ(80,11,14) occ(89,11,13) occ(107,11,4) occ(111,11,6) occ(114,11,5) occ(119,11,8) occ(133,11,9) occ(4,12,1) occ(64,12,5) occ(65,12,14) occ(71,12,9) occ(74,12,10) occ(91,12,11) occ(104,12,3) occ(110,12,4) occ(113,12,8) occ(117,12,6) occ(118,12,2) occ(123,12,7) occ(129,12,12) occ(58,13,3) occ(62,13,7) occ(68,13,8) occ(69,13,11) occ(75,13,12) occ(78,13,13) occ(108,13,2) occ(109,13,5) occ(112,13,6) occ(116,13,4) occ(121,13,9) occ(127,13,10) occ(60,14,5) occ(66,14,6) occ(67,14,13) occ(73,14,10) occ(76,14,11) occ(106,14,4) occ(115,14,7) occ(125,14,8)
Optimization: -170
Answer: 17
occ(1,8,3) occ(1,3,6) occ(1,8,8) occ(1,3,1) occ(1,13,14) occ(1,6,5) occ(1,9,9) occ(1,9,10) occ(1,12,13) occ(1,7,5) occ(2,11,3) occ(3,3,12) coverage(175) occ(16,1,4) occ(25,1,1) occ(28,1,6) occ(130,1,5) occ(134,1,9) occ(140,1,12) occ(154,1,11) occ(160,1,10) occ(164,1,8) occ(14,2,2) occ(18,2,6) occ(26,2,8) occ(27,2,3) occ(36,2,5) occ(132,2,7) occ(136,2,11) occ(142,2,14) occ(152,2,13) occ(156,2,9) occ(161,2,12) occ(166,2,10) occ(22,3,7) occ(23,3,2) occ(30,3,5) occ(33,3,3) occ(128,3,4) occ(138,3,13) occ(143,3,8) occ(158,3,11) occ(159,3,10) occ(162,3,9) occ(163,3,14) occ(12,4,1) occ(20,4,5) occ(24,4,9) occ(29,4,2) occ(34,4,4) occ(38,4,6) occ(51,4,3) occ(55,4,7) occ(144,4,13) occ(145,4,10) occ(150,4,14) occ(157,4,8) occ(165,4,12) occ(168,4,11) occ(5,5,13) occ(21,5,1) occ(31,5,4) occ(32,5,6) occ(35,5,2) occ(53,5,5) occ(90,5,9) occ(126,5,3) occ(141,5,7) occ(148,5,12) occ(149,5,11) occ(155,5,10) occ(167,5,14) occ(172,5,8) occ(10,6,2) occ(19,6,3) occ(40,6,7) occ(49,6,4) occ(50,6,6) occ(57,6,8) occ(92,6,11) occ(124,6,1) occ(146,6,14) occ(147,6,9) occ(151,6,13) occ(169,6,12) occ(170,6,10) occ(7,7,12) occ(11,7,8) occ(37,7,1) occ(46,7,3) occ(47,7,2) occ(52,7,4) occ(84,7,14) occ(85,7,13) occ(88,7,10) occ(94,7,9) occ(139,7,6) occ(153,7,11) occ(174,7,7) occ(8,8,1) occ(9,8,10) occ(17,8,4) occ(42,8,6) occ(48,8,5) occ(59,8,9) occ(81,8,14) occ(86,8,12) occ(96,8,7) occ(122,8,2) occ(171,8,13) occ(13,9,7) occ(39,9,2) occ(44,9,4) occ(45,9,1) occ(54,9,3) occ(74,9,11) occ(82,9,13) occ(83,9,12) occ(87,9,14) occ(100,9,6) occ(103,9,8) occ(137,9,5) occ(6,10,2) occ(15,10,5) occ(43,10,3) occ(61,10,10) occ(62,10,4) occ(72,10,9) occ(78,10,12) occ(79,10,13) occ(98,10,8) occ(105,10,6) occ(115,10,7) occ(120,10,1) occ(127,10,11) occ(173,10,14) occ(41,11,1) occ(56,11,2) occ(63,11,12) occ(70,11,7) occ(76,11,10) occ(77,11,11) occ(80,11,14) occ(89,11,13) occ(101,11,9) occ(102,11,5) occ(107,11,4) occ(119,11,8) occ(135,11,6) occ(4,12,1) occ(60,12,3) occ(64,12,5) occ(65,12,14) occ(71,12,9) occ(91,12,11) occ(99,12,7) occ(110,12,4) occ(113,12,8) occ(117,12,6) occ(118,12,2) occ(125,12,12) occ(129,12,10) occ(58,13,1) occ(68,13,8) occ(69,13,11) occ(75,13,12) occ(95,13,10) occ(104,13,6) occ(108,13,2) occ(109,13,5) occ(114,13,3) occ(121,13,9) occ(133,13,7) occ(66,14,6) occ(67,14,13) occ(73,14,10) occ(93,14,12) occ(97,14,8) occ(106,14,4) occ(111,14,7) occ(112,14,5) occ(116,14,1) occ(123,14,11) occ(131,14,9)
Optimization: -175
Answer: 18
occ(1,8,3) occ(1,3,6) occ(1,8,8) occ(1,3,1) occ(1,13,14) occ(1,6,5) occ(1,9,9) occ(1,9,10) occ(1,12,13) occ(1,7,5) occ(2,11,3) occ(3,3,12) coverage(176) occ(42,1,11) occ(56,1,12) occ(61,1,13) occ(65,1,9) occ(69,1,5) occ(77,1,3) occ(85,1,7) occ(91,1,8) occ(132,1,14) occ(136,1,10) occ(148,1,6) occ(156,1,4) occ(44,2,13) occ(54,2,14) occ(58,2,10) occ(63,2,11) occ(67,2,7) occ(71,2,3) occ(75,2,1) occ(83,2,5) occ(87,2,9) occ(134,2,12) occ(141,2,2) occ(146,2,4) occ(150,2,8) occ(154,2,6) occ(40,3,10) occ(59,3,14) occ(60,3,8) occ(79,3,2) occ(89,3,7) occ(93,3,9) occ(104,3,4) occ(113,3,5) occ(130,3,13) occ(138,3,11) occ(158,3,3) occ(46,4,14) occ(52,4,13) occ(62,4,10) occ(73,4,2) occ(81,4,4) occ(95,4,11) occ(102,4,6) occ(105,4,12) occ(109,4,8) occ(139,4,1) occ(140,4,9) occ(143,4,3) occ(144,4,5) occ(152,4,7) occ(5,5,11) occ(38,5,9) occ(45,5,5) occ(48,5,12) occ(57,5,13) occ(100,5,8) occ(106,5,3) occ(107,5,10) occ(111,5,6) occ(115,5,4) occ(128,5,14) occ(142,5,7) occ(145,5,1) occ(160,5,2) occ(9,6,8) occ(36,6,11) occ(47,6,7) occ(50,6,14) occ(53,6,12) occ(64,6,9) occ(97,6,10) occ(98,6,6) occ(103,6,13) occ(110,6,4) occ(137,6,2) occ(147,6,3) occ(7,7,10) occ(13,7,7) occ(43,7,4) occ(49,7,9) occ(55,7,14) occ(66,7,11) occ(96,7,8) occ(99,7,12) occ(108,7,2) occ(112,7,6) occ(117,7,3) occ(126,7,13) occ(162,7,1) occ(11,8,9) occ(34,8,10) occ(41,8,2) occ(51,8,11) occ(68,8,13) occ(78,8,12) occ(94,8,6) occ(101,8,14) occ(135,8,1) occ(149,8,4) occ(155,8,5) occ(159,8,7) occ(15,9,6) occ(18,9,11) occ(32,9,12) occ(37,9,5) occ(74,9,13) occ(92,9,8) occ(114,9,7) occ(119,9,4) occ(124,9,14) occ(153,9,3) occ(164,9,2) occ(17,10,4) occ(30,10,10) occ(35,10,7) occ(39,10,3) occ(70,10,12) occ(76,10,11) occ(80,10,13) occ(116,10,9) occ(133,10,2) occ(151,10,5) occ(157,10,6) occ(161,10,8) occ(16,11,10) occ(19,11,2) occ(20,11,12) occ(27,11,4) occ(28,11,8) occ(33,11,9) occ(72,11,14) occ(90,11,7) occ(118,11,11) occ(121,11,5) occ(122,11,13) occ(163,11,6) occ(166,11,1) occ(4,12,5) occ(8,12,7) occ(14,12,12) occ(26,12,10) occ(29,12,6) occ(82,12,14) occ(88,12,9) occ(125,12,4) occ(131,12,1) occ(168,12,3) occ(169,12,8) occ(174,12,2) occ(175,12,11) occ(12,13,10) occ(21,13,1) occ(22,13,13) occ(25,13,5) occ(31,13,8) occ(86,13,11) occ(120,13,12) occ(123,13,6) occ(129,13,3) occ(165,13,7) occ(172,13,4) occ(173,13,9) occ(6,14,6) occ(10,14,8) occ(23,14,3) occ(24,14,11) occ(84,14,13) occ(127,14,5) occ(167,14,9) occ(170,14,2) occ(171,14,7)
Optimization: -176
Answer: 19
occ(1,8,3) occ(1,3,6) occ(1,8,8) occ(1,3,1) occ(1,13,14) occ(1,6,5) occ(1,9,9) occ(1,9,10) occ(1,12,13) occ(1,7,5) occ(2,11,3) occ(3,3,12) coverage(178) occ(42,1,11) occ(56,1,12) occ(61,1,13) occ(65,1,9) occ(69,1,5) occ(77,1,3) occ(85,1,7) occ(91,1,8) occ(132,1,14) occ(136,1,10) occ(148,1,6) occ(156,1,4) occ(44,2,13) occ(54,2,14) occ(58,2,10) occ(63,2,11) occ(67,2,7) occ(71,2,3) occ(75,2,1) occ(83,2,5) occ(87,2,9) occ(134,2,12) occ(141,2,2) occ(146,2,4) occ(150,2,8) occ(154,2,6) occ(40,3,10) occ(59,3,14) occ(60,3,8) occ(79,3,2) occ(89,3,7) occ(93,3,9) occ(104,3,4) occ(113,3,5) occ(130,3,13) occ(138,3,11) occ(158,3,3) occ(46,4,14) occ(52,4,13) occ(62,4,10) occ(73,4,2) occ(81,4,4) occ(95,4,11) occ(102,4,6) occ(105,4,12) occ(109,4,8) occ(139,4,1) occ(140,4,9) occ(143,4,3) occ(144,4,5) occ(152,4,7) occ(5,5,11) occ(38,5,9) occ(45,5,5) occ(48,5,12) occ(57,5,13) occ(100,5,8) occ(106,5,3) occ(107,5,10) occ(111,5,6) occ(115,5,4) occ(128,5,14) occ(142,5,7) occ(145,5,1) occ(160,5,2) occ(9,6,8) occ(36,6,11) occ(47,6,7) occ(50,6,14) occ(53,6,12) occ(64,6,9) occ(97,6,10) occ(98,6,6) occ(103,6,13) occ(110,6,4) occ(137,6,2) occ(147,6,3) occ(7,7,10) occ(13,7,7) occ(43,7,4) occ(49,7,9) occ(55,7,14) occ(66,7,11) occ(96,7,8) occ(99,7,12) occ(108,7,2) occ(112,7,6) occ(117,7,3) occ(126,7,13) occ(162,7,1) occ(11,8,9) occ(34,8,10) occ(41,8,2) occ(51,8,11) occ(68,8,13) occ(78,8,12) occ(94,8,6) occ(101,8,14) occ(135,8,1) occ(149,8,4) occ(155,8,5) occ(159,8,7) occ(15,9,6) occ(18,9,11) occ(32,9,12) occ(37,9,5) occ(74,9,13) occ(92,9,8) occ(114,9,7) occ(119,9,4) occ(124,9,14) occ(153,9,3) occ(164,9,2) occ(17,10,4) occ(30,10,10) occ(35,10,7) occ(39,10,3) occ(70,10,12) occ(76,10,11) occ(80,10,13) occ(116,10,9) occ(133,10,2) occ(151,10,5) occ(157,10,6) occ(161,10,8) occ(16,11,10) occ(19,11,2) occ(20,11,12) occ(27,11,4) occ(28,11,8) occ(33,11,9) occ(72,11,14) occ(90,11,7) occ(118,11,11) occ(121,11,5) occ(122,11,13) occ(163,11,6) occ(166,11,1) occ(4,12,5) occ(8,12,7) occ(14,12,12) occ(26,12,10) occ(29,12,6) occ(82,12,14) occ(88,12,9) occ(125,12,4) occ(131,12,1) occ(168,12,3) occ(169,12,8) occ(174,12,2) occ(175,12,11) occ(12,13,10) occ(21,13,1) occ(22,13,13) occ(25,13,5) occ(31,13,8) occ(86,13,11) occ(120,13,12) occ(123,13,6) occ(129,13,3) occ(165,13,7) occ(172,13,4) occ(173,13,9) occ(6,14,6) occ(10,14,8) occ(23,14,3) occ(24,14,11) occ(84,14,13) occ(127,14,5) occ(167,14,9) occ(170,14,2) occ(171,14,7) occ(176,14,1) occ(177,14,10)
Optimization: -178
*** Info : (clingo): INTERRUPTED by signal!
SATISFIABLE

TIME LIMIT   : 1
Models       : 19+
  Optimum    : unknown
Optimization : -178
Calls        : 1
Time         : 300.000s (Solving: 285.52s 1st Model: 0.01s Unsat: 0.00s)
CPU Time     : 300.002s
